 $CONTRL MULT=1 RUNTYP=OPTIMIZE scftyp=RHF icharg=0 NZVAR=30
         MAXIT=190 ISPHER=1 DFTTYP=B3LYP $END
 $GUESS  GUESS=HUCKEL $END
 $ZMAT   AUTO=.T. DLC=.T. $END
 $BASIS  GBASIS=N31 NGAUSS=6 NDFUNC=1 NPFUNC=1 DIFFSP=.T. $END
 $SCF    DAMP=.F. SOSCF=.F. NOCONV=.F. DIIS=.T. DIRSCF=.T. FDIFF=.F. 
         EXTRAP=.F. CONV=2.5D-07 $END
 $SYSTEM MEMORY=300000000 $END
 $DATA
 from ono-file
 C1
C     6.0     0.47321    -0.08311    -0.00346
O     8.0     0.42639    -1.33547     0.00028
N     7.0    -0.64141     0.66425     0.01141
H     1.0    -0.55465     1.67187    -0.06881
C     6.0    -1.98105     0.09200    -0.00377
H     1.0    -2.00835    -0.80674     0.61164
H     1.0    -2.30083    -0.17352    -1.01603
H     1.0    -2.68839     0.81133     0.40672
C     6.0     1.78898     0.65722    -0.00197
H     1.0     2.11163     0.84361     1.02652
H     1.0     1.69068     1.62386    -0.50292
H     1.0     2.54493     0.05967    -0.51038
 $END

 $FITINP IFITU=3 XMUMX=1.0D+24 NMUESP=8 $END
 $ABSINP JABS=4 $END
!
! OPLS-AA
!
 $RISMUN CLTYP=HNC THR=1.0D-11 XMN=0.2 $END
 $UDATA
  SGU(1)=3.750,2.960,3.250,1.000,3.500,2.500,2.500,2.500,3.500,2.500,
         2.500,2.500
  EPU(1)=0.105,0.210,0.170,0.056,0.066,0.030,0.030,0.030,0.066,0.030,
         0.030,0.030
 $END

   >>>>>HNC     <<<<<   
 $HVDATA   NEW2
 NGRID =           4096
 DELTR =      0.0250000
 NV    =              3
 TEMP  =    333.0000000
 GEOM       COORDINATE (ANGSTROM)       SIGMA    EPSILON  CHARGE     DENSITY      MASS      DIFF
O       0.000000   0.000000   0.000000  3.16600  0.15500 -0.82000  1 3.342600E-02 15.9994 3.9000E-05
H1      0.816490  -0.577360   0.000000  1.00000  0.05600  0.41000  1 3.342600E-02  1.0079 3.9000E-05
H2     -0.816490  -0.577360   0.000000  1.00000  0.05600  0.41000  1 3.342600E-02  1.0079 3.9000E-05
 ****
  -1.816070899466E+02 -1.817222260158E+02 -1.820235803401E+02 -1.824310428703E+02
  -1.828782485551E+02 -1.833129705649E+02 -1.836971791343E+02 -1.840044859879E+02
  -1.842170920095E+02 -1.843228415483E+02 -1.843128088384E+02 -1.841793991283E+02
  -1.839149052321E+02 -1.835103725032E+02 -1.829546594361E+02 -1.822335749371E+02
  -1.813290037281E+02 -1.802179296950E+02 -1.788712787502E+02 -1.772524915040E+02
  -1.753157315991E+02 -1.730036144988E+02 -1.702443270115E+02 -1.669479853921E+02
  -1.630020759960E+02 -1.582658395888E+02 -1.525635509324E+02 -1.456768616189E+02
  -1.373368537392E+02 -1.272173802042E+02 -1.149329665988E+02 -1.000473727359E+02
  -8.210311182017E+01 -6.068721518363E+01 -3.555156518207E+01 -6.800078597233E+00
   2.487201049062E+01  5.795892317471E+01  9.008866678615E+01  1.182921983467E+02
   1.396342344094E+02  1.519935194412E+02  1.546132524774E+02  1.481612474651E+02
   1.343532736055E+02  1.154045993963E+02  9.355027197945E+01  7.073405907822E+01
   4.845937128370E+01  2.775938242173E+01  9.243667618644E+00 -6.814513988903E+00
  -2.037929876698E+01 -3.156200604582E+01 -4.055017750406E+01 -4.755813097925E+01
  -5.279625915900E+01 -5.645437762331E+01 -5.869451424210E+01 -5.964950294634E+01
  -5.942488346044E+01 -5.810257462768E+01 -5.574550098899E+01 -5.240282828815E+01
  -4.811576293343E+01 -4.292403463751E+01 -3.687323974198E+01 -3.002317078515E+01
  -2.245707897862E+01 -1.429147343328E+01 -5.685535482494E+00  3.151461821789E+00
   1.195705979291E+01  2.041965653536E+01  2.819230248363E+01  3.491755090911E+01
   4.026204257774E+01  4.395603457544E+01  4.583001349352E+01  4.583952121734E+01
   4.407146003774E+01  4.073004192231E+01  3.610624338096E+01  3.053868572934E+01
   2.437480514891E+01  1.793921968226E+01  1.151276729311E+01  5.322389286423E+00
  -4.601521828498E-01 -5.713609267559E+00 -1.035941504992E+01 -1.435284031209E+01
  -1.767455522171E+01 -2.032336332919E+01 -2.231040867827E+01 -2.365486679097E+01
  -2.438097919517E+01 -2.451623156828E+01 -2.409046971560E+01 -2.313576582264E+01
  -2.168687223188E+01 -1.978211887689E+01 -1.746461813372E+01 -1.478363324604E+01
  -1.179594469939E+01 -8.567015316535E+00 -5.171717961554E+00 -1.694361241356E+00
   1.772253023422E+00  5.128962366816E+00  8.273679548447E+00  1.110606764555E+01
   1.353315847070E+01  1.547537470194E+01  1.687222332996E+01  1.768685595894E+01
   1.790878646203E+01  1.755431996322E+01  1.666462285580E+01  1.530175635630E+01
   1.354330295772E+01  1.147636650401E+01  9.191705094616E+00  6.778597457933E+00
   4.320812005104E+00  1.893811510313E+00 -4.368663142513E-01 -2.616237496234E+00
  -4.599753505492E+00 -6.352685000252E+00 -7.849228060269E+00 -9.071507996715E+00
  -1.000860715457E+01 -1.065569846176E+01 -1.101332977966E+01 -1.108687552542E+01
  -1.088615091545E+01 -1.042516842210E+01 -9.722004305665E+00 -8.798733694870E+00
  -7.681385266949E+00 -6.399860747805E+00 -4.987761217112E+00 -3.482062513044E+00
  -1.922587868751E+00 -3.512386180413E-01  1.189035224268E+00  2.655513920918E+00
   4.007191012255E+00  5.206378237158E+00  6.220317628939E+00  7.022664596026E+00
   7.594701412537E+00  7.926157043856E+00  8.015545774113E+00  7.869988802802E+00
   7.504540748892E+00  6.941096728320E+00  6.206995835412E+00  5.333457813745E+00
   4.353989836147E+00  3.302882759289E+00  2.213886564911E+00  1.119120031861E+00
   4.823601290043E-02 -9.721643087655E-01 -1.918894991558E+00 -2.772365302827E+00
  -3.516619109650E+00 -4.139275389986E+00 -4.631406475036E+00 -4.987383322642E+00
  -5.204709075282E+00 -5.283854149686E+00 -5.228098860021E+00 -5.043383260425E+00
  -4.738158795900E+00 -4.323232414900E+00 -3.811591223878E+00 -3.218194516514E+00
  -2.559720334614E+00 -1.854255607781E+00 -1.120922562462E+00 -3.794393120537E-01
   3.503807910354E-01  1.049178949787E+00  1.698630051684E+00  2.282024457754E+00
   2.784820707054E+00  3.195135190786E+00  3.504136092717E+00  3.706313902662E+00
   3.799609127846E+00  3.785388633532E+00  3.668273885536E+00  3.455835797139E+00
   3.158180355014E+00  2.787455716697E+00  2.357314383363E+00  1.882363469941E+00
   1.377632461194E+00  8.580821204673E-01  3.381713411183E-01 -1.685082436413E-01
  -6.495264406522E-01 -1.093839158011E+00 -1.491948978034E+00 -1.836009304165E+00
  -2.119880688083E+00 -2.339147778593E+00 -2.491104426631E+00 -2.574713056802E+00
  -2.590542807535E+00 -2.540689303604E+00 -2.428677493522E+00 -2.259347823927E+00
  -2.038725282465E+00 -1.773870510394E+00 -1.472712344638E+00 -1.143861723878E+00
  -7.964078949230E-01 -4.396991446020E-01 -8.311179732110E-02  2.641872445246E-01
   5.934776964727E-01  8.967149838754E-01  1.166742704479E+00  1.397479866950E+00
   1.584074877060E+00  1.723019497304E+00  1.812217820254E+00  1.851007572045E+00
   1.840133547973E+00  1.781675494785E+00  1.678935018862E+00  1.536287969043E+00
   1.359010034947E+00  1.153083995878E+00  9.249971145294E-01  6.815367078397E-01
   4.295910187434E-01  1.759613414244E-01 -7.280997584266E-02 -3.105923388191E-01
  -5.317984448701E-01 -7.314935028263E-01 -9.054819251215E-01 -1.050371875444E+00
  -1.163618457238E+00 -1.243546537120E+00 -1.289354292859E+00 -1.301098572325E+00
  -1.279663130156E+00 -1.226710781917E+00 -1.144620548908E+00 -1.036410951543E+00
  -9.056507891510E-01 -7.563589866470E-01 -5.928954112260E-01 -4.198449098192E-01
  -2.418971865860E-01 -6.372545959523E-02  1.101329056125E-01  2.753904586319E-01
   4.281150992885E-01  5.648237450469E-01  6.825614314898E-01  7.789635603604E-01
   8.522996417729E-01  9.014976130978E-01  9.261485809738E-01  9.264925974474E-01
   9.033867707710E-01  8.582576082962E-01  7.930399382329E-01  7.101050666354E-01
   6.121809702532E-01  5.022673393053E-01  3.835481649009E-01  2.593043638264E-01
   1.328286564909E-01  7.344612938602E-03 -1.140685390721E-01 -2.285440496147E-01
  -3.334877169547E-01 -4.266291271136E-01 -5.060635161492E-01 -5.702838864060E-01
  -6.182031697853E-01 -6.491663655079E-01 -6.629527144242E-01 -6.597680961268E-01
  -6.402279741774E-01 -6.053313552145E-01 -5.564263895074E-01 -4.951684050868E-01
  -4.234713482637E-01 -3.434537760624E-01 -2.573807183238E-01 -1.676028711165E-01
  -7.649470312711E-02  1.360687499264E-02  1.004616057384E-01  1.819811179506E-01
   2.562787745747E-01  3.217127854612E-01  3.769214598871E-01  4.208497528810E-01
   4.527665652680E-01  4.722725879536E-01  4.792988042023E-01  4.740960767418E-01
   4.572165198835E-01  4.294875922493E-01  3.919800208593E-01  3.459707918248E-01
   2.929025032271E-01  2.343403890335E-01  1.719282825971E-01  1.073447159875E-01
   4.226024379772E-02 -2.170304065914E-02 -8.300896654489E-02 -1.402410288197E-01
  -1.921318572458E-01 -2.375879813980E-01 -2.757095865401E-01 -3.058050650663E-01
  -3.274002754447E-01 -3.402425148837E-01 -3.442993061420E-01 -3.397521832192E-01
  -3.269857473021E-01 -3.065723428786E-01 -2.792527849871E-01 -2.459136405347E-01
  -2.075616383615E-01 -1.652958415496E-01 -1.202782689902E-01 -7.370368836419E-02
  -2.676932675827E-02  1.935475425443E-02  6.355388699536E-02  1.047949382575E-01
   1.421497279144E-01  1.748151731555E-01  2.021297006286E-01  2.235855824513E-01
   2.388369714096E-01  2.477035401802E-01  2.501697551234E-01  2.463799411450E-01
   2.366294068940E-01  2.213520039123E-01  2.011045774193E-01  1.765488364729E-01
   1.484312175215E-01  1.175613458607E-01  8.478970647996E-02  5.098512866627E-02
   1.701266128667E-02 -1.628762187323E-02 -4.812040040335E-02 -7.775304113307E-02
  -1.045313281762E-01 -1.278926989331E-01 -1.473767709363E-01 -1.626330162206E-01
  -1.734255141663E-01 -1.796347819318E-01 -1.812567497360E-01 -1.783990083354E-01
  -1.712745143028E-01 -1.601929874999E-01 -1.455502807025E-01 -1.278160363299E-01
  -1.075199758858E-01 -8.523718697515E-02 -6.157278687850E-02 -3.714634395975E-02
  -1.257643503699E-02  1.153429795199E-02  3.461324849514E-02  5.613079031852E-02
   7.561178789754E-02  9.264543744617E-02  1.068932483622E-01  1.180950268636E-01
   1.260727746410E-01  1.307324702036E-01  1.320637520405E-01  1.301375751104E-01
   1.251019585738E-01  1.171759875281E-01  1.066422682717E-01  9.383806994675E-02
   7.914540925051E-02  6.298035421099E-02  4.578183226074E-02  2.800023226044E-02
   1.008608471223E-02 -7.520905348582E-03 -2.440221694013E-02 -4.017002922158E-02
  -5.447569038697E-02 -6.701696560463E-02 -7.754392676036E-02 -8.586338310352E-02
  -9.184179183765E-02 -9.540662554798E-02 -9.654621285488E-02 -9.530810427204E-02
  -9.179605069532E-02 -8.616571193353E-02 -7.861924105613E-02 -6.939891205822E-02
  -5.877997740717E-02 -4.706295376472E-02 -3.456554272929E-02 -2.161439451339E-02
  -8.536920410084E-03  4.346649232251E-03  1.673077648133E-02  2.833152954100E-02
   3.889275086934E-02  4.819135609563E-02  5.604166455957E-02  6.229869015100E-02
   6.686034772690E-02  6.966855892640E-02  7.070926714116E-02  7.001139794922E-02
   6.764482412949E-02  6.371741673850E-02  5.837128152416E-02  5.177829657366E-02
   4.413507865081E-02  3.565751567623E-02  2.657500757374E-02  1.712456083529E-02
   7.544880182310E-03 -1.929402726478E-03 -1.107323175625E-02 -1.967623735310E-02
  -2.754734700978E-02 -3.451879979811E-02 -4.044948693203E-02 -4.522755736295E-02
  -4.877224707858E-02 -5.103490936393E-02 -5.199924359757E-02 -5.168073853654E-02
  -5.012536524089E-02 -4.740757121746E-02 -4.362764376402E-02 -3.890852339455E-02
  -3.339216039704E-02 -2.723551569500E-02 -2.060631409476E-02 -1.367866057140E-02
  -6.628631416837E-03  3.700510791044E-04  7.150156169538E-03  1.355479857640E-02
   1.944092221412E-02  2.468233973633E-02  2.917226669906E-02  3.282530444956E-02
   3.557884048782E-02  3.739385132758E-02  3.825510762967E-02  3.817079689493E-02
   3.717159222201E-02  3.530920889383E-02  3.265450093725E-02  2.929515971585E-02
   2.533308331004E-02  2.088149140941E-02  1.606186310029E-02  1.100077684277E-02
   5.826730661784E-03  6.670187337828E-04 -4.355264174645E-03 -9.124023944810E-03
  -1.353271501059E-02 -1.748658324668E-02 -2.090456150293E-02 -2.372078423819E-02
  -2.588569804692E-02 -2.736675424525E-02 -2.814868016078E-02 -2.823333489496E-02
  -2.763916515630E-02 -2.640028489144E-02 -2.456521093125E-02 -2.219529336661E-02
  -1.936288593742E-02 -1.614930608127E-02 -1.264263850077E-02 -8.935437980446E-03
  -5.122388782170E-03 -1.297977166475E-03  2.445767485728E-03  6.021410852675E-03
   9.348082616773E-03  1.235323331204E-02  1.497414184318E-02  1.715914387923E-02
   1.886855838946E-02  2.007529805486E-02  2.076515698861E-02  2.093677784795E-02
   2.060130788724E-02  1.978176147130E-02  1.851211297012E-02  1.683615047656E-02
   1.480612544097E-02  1.248123781162E-02  9.925998719932E-03  7.208514907007E-03
   4.398739165108E-03  1.566730865330E-03 -1.219031537760E-03 -3.893246448599E-03
  -6.395258018541E-03 -8.670366445430E-03 -1.067095357990E-02 -1.235740276183E-02
  -1.369879796754E-02 -1.467339279872E-02 -1.526884610142E-02 -1.548222627297E-02
  -1.531979210797E-02 -1.479656261720E-02 -1.393569313421E-02 -1.276767853751E-02
  -1.132940808025E-02 -9.663098520366E-03 -7.815134522094E-03 -5.834846089610E-03
  -3.773253642327E-03 -1.681810738505E-03  3.888260520921E-04  2.389972504254E-03
   4.276011397623E-03  6.005383505650E-03  7.541454590838E-03  8.853241838111E-03
   9.915986469813E-03  1.071156352811E-02  1.122872345105E-02  1.146316444961E-02
   1.141743830875E-02  1.110069640377E-02  1.052828596593E-02  9.721210251642E-03
   8.705468825461E-03  7.511296956507E-03  6.172324744870E-03  4.724678346695E-03
   3.206046186535E-03  1.654733653674E-03  1.087291527689E-04 -1.395196147392E-03
  -2.822334228079E-03 -4.140812696678E-03 -5.322277329466E-03 -6.342470508757E-03
  -7.181694625004E-03 -7.825152321436E-03 -8.263159013160E-03 -8.491226069874E-03
  -8.510016570945E-03 -8.325178311810E-03 -7.947061904562E-03 -7.390334099597E-03
  -6.673498997260E-03 -5.818341385157E-03 -4.849308174969E-03 -3.792844624632E-03
  -2.676702875013E-03 -1.529240151440E-03 -3.787239387930E-04  7.473395759604E-04
   1.822838326235E-03  2.823634701493E-03  3.728081088049E-03  4.517460529903E-03
   5.176344274286E-03  5.692860473548E-03  6.058870339760E-03  6.270050611220E-03
   6.325883167098E-03  6.229555031548E-03  5.987773741503E-03  5.610505121806E-03
   5.110641842362E-03  4.503612731384E-03  3.806943639737E-03  3.039781696253E-03
   2.222395046516E-03  1.375660625367E-03  5.205521895853E-04 -3.223592751342E-04
  -1.133381521047E-03 -1.894142746818E-03 -2.587989736790E-03 -3.200334147407E-03
  -3.718940321094E-03 -4.134149315011E-03 -4.439035697574E-03 -4.629495103543E-03
  -4.704262449562E-03 -4.664862128062E-03 -4.515493296781E-03 -4.262854623195E-03
  -3.915914392309E-03 -3.485632823182E-03 -2.984644620540E-03 -2.426910323605E-03
  -1.827345751461E-03 -1.201438917981E-03 -5.648640544674E-04  6.689801940298E-05
   6.789241282120E-04  1.257189356756E-03  1.788876419954E-03  2.262647332980E-03
   2.668871818723E-03  2.999808299752E-03  3.249734389661E-03  3.415025310831E-03
   3.494179775548E-03  3.487794347307E-03  3.398488319547E-03  3.230782475515E-03
   2.990935909269E-03  2.686746162419E-03  2.327318458983E-03  1.922810574733E-03
   1.484160069964E-03  1.022801014748E-03  5.503771796211E-04  7.845871840291E-05
  -3.817311154959E-04 -8.195729336754E-04 -1.225286334901E-03 -1.590138166116E-03
  -1.906619870847E-03 -2.168590546371E-03 -2.371383417936E-03 -2.511874193405E-03
  -2.588510877538E-03 -2.601305371367E-03 -2.551788245149E-03 -2.442928725639E-03
  -2.279022872521E-03 -2.065553410992E-03 -1.809025428020E-03 -1.516782422409E-03
  -1.196807706133E-03 -8.575161944093E-04 -5.075418791496E-04 -1.555260698718E-04
   1.900885043066E-04  5.212530796973E-04  8.304932936866E-04  1.111070870912E-03
   1.357123151617E-03  1.563777834396E-03  1.727240812272E-03  1.844855839839E-03
   1.915135322571E-03  1.937762386970E-03  1.913564918353E-03  1.844463062108E-03
   1.733392123531E-03  1.584203490502E-03  1.401546502473E-03  1.190734713989E-03
   9.576001248792E-04  7.083392816990E-04  4.493550885289E-04  1.870983013086E-04
  -7.208757644586E-05 -3.221143243327E-04 -5.572867124548E-04 -7.724268352759E-04
  -9.629825737936E-04 -1.125117997396E-03 -1.255784152900E-03 -1.352769058377E-03
  -1.414726388346E-03 -1.441182716555E-03 -1.432523833129E-03 -1.389960994100E-03
  -1.315478548008E-03 -1.211764646281E-03 -1.082127228422E-03 -9.303976262337E-04
  -7.608244873473E-04 -5.779607411223E-04 -3.865465485863E-04 -1.913910605769E-04
   2.744110488985E-06  1.912570497080E-04  3.698107207920E-04  5.344289241233E-04
   6.815809385431E-04  8.082532050702E-04  9.120066371756E-04  9.910186470646E-04
   1.044109242155E-03  1.070751067096E-03  1.071063531475E-03  1.045791662849E-03
   9.962705526798E-04  9.243767068319E-04  8.324677712091E-04  7.233124633183E-04
   6.000126074544E-04  4.659194278576E-04  3.245462161327E-04  1.794796337663E-04
   3.429176484131E-05 -1.075449301158E-04 -2.427378530495E-04 -3.682478532841E-04
  -4.813546378070E-04 -5.797126178706E-04 -6.613961855146E-04 -7.249335886663E-04
  -7.693289836587E-04 -7.940724315474E-04 -7.991380120746E-04 -7.849703991013E-04
  -7.524606176672E-04 -7.029118306896E-04 -6.379963234984E-04 -5.597049219653E-04
  -4.702903273285E-04 -3.722058453442E-04 -2.680411548219E-04 -1.604566771768E-04
  -5.211819611976E-05  5.436678115873E-05  1.565094151389E-04  2.519953939063E-04
   3.387350226539E-04  4.149065760239E-04  4.789920327029E-04  5.298046162370E-04
   5.665076740069E-04  5.886247425471E-04  5.960407586405E-04  5.889946821818E-04
   5.680638935335E-04  5.341410074140E-04  4.884038098422E-04  4.322792633647E-04
   3.674025445905E-04  2.955722655202E-04  2.187029957350E-04  1.387763316293E-04
   5.779166915619E-05 -2.228209346937E-05 -9.955284151298E-05 -1.722484182970E-04
  -2.387557833126E-04 -2.976552751451E-04 -3.477493307498E-04 -3.880850712833E-04
  -4.179704175224E-04 -4.369834733334E-04 -4.449751724028E-04 -4.420652616763E-04
  -4.286319389877E-04 -4.052955248670E-04 -3.728967677615E-04 -3.324704124284E-04
  -2.852148461791E-04 -2.324586241805E-04 -1.756248167028E-04 -1.161940622083E-04
  -5.566730164110E-05  4.470934347031E-06  6.278776964156E-05  1.179349865850E-04
   1.686790153689E-04  2.139273112222E-04  2.527505474123E-04  2.844002524730E-04
   3.083215610604E-04  3.241609571913E-04  3.317689339410E-04  3.311976977083E-04
   3.226940826712E-04  3.066880284141E-04  2.837769913432E-04  2.547068245309E-04
   2.203496495456E-04  1.816793769235E-04  1.397454901282E-04  9.564580659788E-05
   5.049885488365E-05  5.416573133027E-06 -3.852207166813E-05 -8.029590740024E-05
  -1.189643188238E-04 -1.536874306341E-04 -1.837433459202E-04 -2.085420771261E-04
  -2.276359705680E-04 -2.407264386821E-04 -2.476669779362E-04 -2.484624666338E-04
  -2.432648958491E-04 -2.323656937040E-04 -2.161849516387E-04 -1.952578542445E-04
  -1.702187433975E-04 -1.417832224659E-04 -1.107288111988E-04 -7.787461605455E-05
  -4.406056034365E-05 -1.012664725899E-05  2.310721383296E-05  5.486038351881E-05
   8.440920153262E-05  1.111028745501E-04  1.343771731980E-04  1.537656969289E-04
   1.689084645600E-04  1.795577239777E-04  1.855808799481E-04  1.869605758852E-04
   1.837919701131E-04  1.762773777790E-04  1.647184467571E-04  1.495061551724E-04
   1.311088998605E-04  1.100590495747E-04  8.693830010042E-05  6.236225177386E-05
   3.696457630365E-05  1.138119946613E-05 -1.376514537620E-05 -3.787959686604E-05
  -6.040877400795E-05 -8.085298174494E-05 -9.877678749866E-05 -1.138177293332E-04
  -1.256930271923E-04 -1.342041632146E-04 -1.392393116035E-04 -1.407735922181E-04
  -1.388672342124E-04 -1.336617267979E-04 -1.253741359684E-04 -1.142897503550E-04
  -1.007533092922E-04 -8.515903663719E-05 -6.793978245882E-05 -4.955553079746E-05
  -3.048159396579E-05 -1.119675781239E-05  7.828310557061E-06  2.614215015581E-05
   4.332281164035E-05  5.898718394001E-05  7.279912021701E-05  8.447623038259E-05
   9.379518704629E-05  1.005954878277E-04  1.047815981793E-04  1.063234951996E-04
   1.052556154622E-04  1.016743010969E-04  9.573381834037E-05  8.764110785167E-05
   7.764939862913E-05  6.605089400517E-05  5.316870243262E-05  3.934825156714E-05
   2.494837821607E-05  1.033234194026E-05 -4.141046522281E-06 -1.812594594666E-05
  -3.129748482113E-05 -4.335903658544E-05 -5.404863834099E-05 -6.314439534474E-05
  -7.046879173145E-05 -7.589180662364E-05 -7.933281521157E-05 -8.076123512824E-05
  -8.019595944684E-05 -7.770359566142E-05 -7.339560927116E-05 -6.742444360283E-05
  -5.997876152328E-05 -5.127792189145E-05 -4.156586940970E-05 -3.110457629093E-05
  -2.016723120587E-05 -9.031323389785E-06  2.028184324180E-06  1.274545261076E-05
   2.286995701352E-05  3.217215510241E-05  4.044848464589E-05  4.752561095398E-05
   5.326381771088E-05  5.755950476558E-05  6.034673338809E-05  6.159782955557E-05
   6.132303325859E-05  5.956925092700E-05  5.641794208616E-05  5.198223775556E-05
   4.640335852163E-05  3.984645991943E-05  3.249599912301E-05  2.455076967453E-05
   1.621871128954E-05  7.711648473176E-06 -7.599363003770E-07 -8.991945801305E-06
  -1.679143479489E-05 -2.398096977940E-05 -3.040250958895E-05 -3.592070531992E-05
  -4.042557573456E-05 -4.383449063205E-05 -4.609345305738E-05 -4.717764749187E-05
  -4.709128141805E-05 -4.586672158852E-05 -4.356298559257E-05 -4.026362072364E-05
  -3.607405873599E-05 -3.111850213475E-05 -2.553645011668E-05 -1.947893683027E-05
  -1.310459930183E-05 -6.575653977759E-06 -5.390115366292E-08  6.303168221597E-06
   1.234605213590E-05  1.793664108708E-05  2.295125065473E-05  2.728324030495E-05
   3.084514596696E-05  3.357030719983E-05  3.541394366490E-05  3.635368757360E-05
   3.638955445803E-05  3.554338586084E-05  3.385777122721E-05  3.139450728440E-05
   2.823262395107E-05  2.446605371570E-05  2.020099122821E-05  1.555303136440E-05
   1.064414304627E-05  5.599572362822E-06  5.447343839944E-07 -4.397814128550E-06
  -9.111268131071E-06 -1.348724868548E-05 -1.742821813496E-05 -2.084956546091E-05
  -2.368133719978E-05 -2.586956399278E-05 -2.737717645540E-05 -2.818448210603E-05
  -2.828921855969E-05 -2.770617598646E-05 -2.646642361626E-05 -2.461615382106E-05
  -2.221519604846E-05 -1.933522858857E-05 -1.605775610553E-05 -1.247188993062E-05
  -8.672007595433E-06 -4.755333833362E-06 -8.195210346635E-07  3.039729113346E-06
   6.730929421352E-06  1.016892040596E-05  1.327676959936E-05  1.598743200124E-05
   1.824512153094E-05  2.000638330171E-05  2.124083247407E-05  2.193156656588E-05
   2.207523284194E-05  2.168177489993E-05  2.077385611445E-05  1.938599877033E-05
   1.756345098265E-05  1.536083111225E-05  1.284057365169E-05  1.007123355907E-05
   7.125678683047E-06  4.079232208718E-06  1.007795301703E-06 -2.013988874526E-06
  -4.914502179663E-06 -7.626793761428E-06 -1.009007664204E-05 -1.225103156545E-05
  -1.406490684104E-05 -1.549637816102E-05 -1.652016894915E-05 -1.712140793404E-05
  -1.729573600120E-05 -1.704915245416E-05 -1.639762464767E-05 -1.536646154846E-05
  -1.398948692805E-05 -1.230802182435E-05 -1.036971955702E-05 -8.227269992661E-06
  -5.937021473202E-06 -3.557541012348E-06 -1.148161990355E-06  1.232459605976E-06
   3.527731553230E-06  5.684438165967E-06  7.653934372698E-06  9.393210198164E-06
   1.086578884893E-05  1.204245483431E-05  1.290178424308E-05  1.343048322764E-05
   1.362351652990E-05  1.348404159498E-05  1.302314066212E-05  1.225937488220E-05
   1.121816194473E-05  9.931009472153E-06  8.434612505304E-06  6.769852910291E-06
   4.980714540306E-06  3.113154607285E-06  1.213946926346E-06 -6.704611765396E-07
  -2.495064280127E-06 -4.217346856444E-06 -5.798253242246E-06 -7.203044662694E-06
  -8.402038227019E-06 -9.371199693985E-06 -1.009259258844E-05 -1.055466193330E-05
  -1.075236462824E-05 -1.068713216702E-05 -1.036668473461E-05 -9.804692071712E-06
  -9.020304907144E-06 -8.037560117529E-06 -6.884688650249E-06 -5.593333412340E-06
  -4.197710912576E-06 -2.733725059324E-06 -1.238068746187E-06  2.526773989672E-07
   1.702915189132E-06  3.078860477464E-06  4.349304177361E-06  5.486299787167E-06
   6.465749425965E-06  7.267890108458E-06  7.877658707621E-06  8.284941935646E-06
   8.484696624546E-06  8.476952487777E-06  8.266688219983E-06  7.863599026335E-06
   7.281751955135E-06  6.539151331641E-06  5.657215640005E-06  4.660191194751E-06
   3.574507110056E-06  2.428099177274E-06  1.249707848047E-06  6.817947261719E-08
  -1.088224895623E-06 -2.192485539602E-06 -3.219440990434E-06 -4.146341505338E-06
  -4.953338720691E-06 -5.623889437915E-06 -6.145077683578E-06 -6.507838124767E-06
  -6.707088218081E-06 -6.741757361431E-06 -6.614725471012E-06 -6.332663253472E-06
  -5.905791514576E-06 -5.347555185835E-06 -4.674233254461E-06 -3.904484594072E-06
  -3.058851773887E-06 -2.159225705204E-06 -1.228295377504E-06 -2.889848914102E-07
   6.360967541275E-07  1.525192065821E-06  2.357893164018E-06  3.115601976017E-06
   3.781931718780E-06  4.343051027327E-06  4.787954177760E-06  5.108662438951E-06
   5.300343324858E-06  5.361356360952E-06  5.293216575638E-06  5.100488222782E-06
   4.790602521036E-06  4.373616412330E-06  3.861908834912E-06  3.269833535042E-06
   2.613328062643E-06  1.909498773925E-06  1.176183150290E-06  4.315096114865E-07
  -3.065434385591E-07 -1.020570410280E-06 -1.694141399476E-06 -2.312168161767E-06
  -2.861233798379E-06 -3.329869859171E-06 -3.708785578376E-06 -3.991034943064E-06
  -4.172128686363E-06 -4.250080816530E-06 -4.225399461550E-06 -4.101013913372E-06
  -3.882150853509E-06 -3.576154654350E-06 -3.192266418375E-06 -2.741358744268E-06
  -2.235642870130E-06 -1.688346631393E-06 -1.113380262057E-06 -5.249897648297E-07
   6.258543267235E-08  6.354509102963E-07  1.180375587050E-06  1.685091088033E-06
   2.138557512369E-06  2.531198417813E-06  2.855091595655E-06  3.104120753012E-06
   3.274077189395E-06  3.362718149081E-06  3.369773348618E-06  3.296909287836E-06
   3.147644114921E-06  2.927225109182E-06  2.642463832529E-06  2.301542251340E-06
   1.913786442044E-06  1.489422676113E-06  1.039313251225E-06  5.746874030900E-07
   1.068653565735E-07 -3.530096285343E-07 -7.942331845632E-07 -1.206781398101E-06
  -1.581535083612E-06 -1.910473579050E-06 -2.186842125013E-06 -2.405281574478E-06
  -2.561926141524E-06 -2.654459280900E-06 -2.682136095620E-06 -2.645763267938E-06
  -2.547646883162E-06 -2.391502181090E-06 -2.182335194290E-06 -1.926292920550E-06
  -1.630493549582E-06 -1.302833786962E-06 -9.517855080447E-07 -5.861803099447E-07
  -2.149934757567E-07  1.528737330916E-07  5.088012363036E-07  8.446500030762E-07
   1.152941525380E-06  1.427021627155E-06  1.661196902305E-06  1.850849112949E-06
   1.992517508974E-06  2.083955618998E-06  2.124154205685E-06  2.113338135890E-06
   2.052930508316E-06  1.945492712527E-06  1.794635707740E-06  1.604911965928E-06
   1.381684385122E-06  1.130982519325E-06  8.593431471845E-07  5.736460899877E-07
   2.809423889337E-07 -1.171391096063E-08 -2.974338796227E-07 -5.696499755650E-07
  -8.222648493666E-07 -1.049782175333E-06 -1.247423548227E-06 -1.411222344891E-06
  -1.538099913091E-06 -1.625915476697E-06 -1.673496511229E-06 -1.680642223295E-06
  -1.648107410481E-06 -1.577561130274E-06 -1.471528139672E-06 -1.333308364078E-06
  -1.166883187340E-06 -9.768049955626E-07 -7.680787493592E-07 -5.460326625891E-07
  -3.161874904698E-07 -8.412071223350E-08  1.446636636322E-07  3.648646594345E-07
   5.715021912065E-07  7.600285564710E-07  9.264237830779E-07  1.067279767665E-06
   1.179864908073E-06  1.262174560764E-06  1.312960312375E-06  1.331743785801E-06
   1.318808952057E-06  1.275179932912E-06  1.202578601299E-06  1.103369926785E-06
   9.804902534386E-07  8.373668837089E-07  6.778246774606E-07  5.059886223439E-07
   3.261783816444E-07  1.428034762687E-07 -3.974392397805E-08 -2.171907901384E-07
  -3.854824630587E-07 -5.408719090224E-07 -6.800025350961E-07 -7.999764996095E-07
  -8.984142948116E-07 -9.734972247159E-07 -1.023998805782E-06 -1.049298420490E-06
  -1.049383450423E-06 -1.024833820463E-06 -9.767960934595E-07 -9.069417378745E-07
  -8.174167282892E-07 -7.107787796014E-07 -5.899286360118E-07 -4.580323929120E-07
  -3.184422852464E-07 -1.746119051110E-07 -3.001412665852E-08  1.119422449568E-07
   2.479898522587E-07  3.750772126870E-07  4.904341050101E-07  5.916309350009E-07
   6.766264677305E-07  7.438076774995E-07  7.920159528335E-07  8.205649752303E-07
   8.292438841894E-07  8.183126291201E-07  7.884831263941E-07  7.408933616532E-07
   6.770693961654E-07  5.988818508531E-07  5.084926926113E-07  4.082993947269E-07
   3.008719180660E-07  1.888901589321E-07  7.507736552798E-08 -3.786297204320E-08
  -1.473111133420E-07 -2.507890109928E-07 -3.460159452740E-07 -4.309561185548E-07
  -5.038616190353E-07 -5.633053500516E-07 -6.082083330811E-07 -6.378554540948E-07
  -6.519052207264E-07 -6.503878571150E-07 -6.336975609156E-07 -6.025734018010E-07
  -5.580756835572E-07 -5.015526840277E-07 -4.346034541816E-07 -3.590338290746E-07
  -2.768105861231E-07 -1.900104457148E-07 -1.007702646676E-07 -1.123432393381E-08
   7.649488534032E-08  1.604059307755E-07  2.386228044957E-07  3.094465796371E-07
   3.713901405436E-07  4.232095655735E-07  4.639263030003E-07  4.928453208742E-07
   5.095636161870E-07  5.139742535081E-07  5.062604796236E-07  4.868862888160E-07
   4.565773139781E-07  4.162992006928E-07  3.672279072730E-07  3.107183978797E-07
   2.482673592069E-07  1.814760035565E-07  1.120087370171E-07  4.155376448634E-08
  -2.821811940718E-08 -9.569124438757E-08 -1.593427221404E-07 -2.177747290639E-07
  -2.697455148380E-07 -3.141932539477E-07 -3.502581163920E-07 -3.772960546521E-07
  -3.948898598979E-07 -4.028523432448E-07 -4.012263562432E-07 -3.902767695402E-07
  -3.704804492785E-07 -3.425086539812E-07 -3.072078097034E-07 -2.655745970076E-07
  -2.187298687305E-07 -1.678888936950E-07 -1.143316124458E-07 -5.937009118004E-08
  -4.318635119416E-09  4.953815312871E-08  1.009733976146E-07  1.488462742560E-07
   1.921252089125E-07  2.299105736045E-07  2.614512528458E-07  2.861596709142E-07
   3.036206264869E-07  3.135978515855E-07  3.160343431218E-07  3.110504133459E-07
   2.989358682320E-07  2.801401856149E-07  2.552574423377E-07  2.250100836873E-07
   1.902281725238E-07  1.518285414599E-07  1.107904070627E-07  6.813218808975E-08